inputs/244.in
10
0 75 90 33 18 14 25 15 49 34 
75 0 93 56 97 90 7 74 95 4 
90 93 0 3 58 24 6 97 12 38 
33 56 3 0 41 79 41 57 55 48 
18 97 58 41 0 55 91 56 97 19 
14 90 24 79 55 0 88 41 39 49 
25 7 6 41 91 88 0 93 93 22 
15 74 97 57 56 41 93 0 100 76 
49 95 12 55 97 39 93 100 0 37 
34 4 38 48 19 49 22 76 37 0 
BBRBRRRBRB
