output/244.out
9 6 8 1 5 10 2 7 3 4 
